
n_res = 4;
rcap = [35, 37, 508, 486];
rtype = [1, 1, 2, 2];
n_tasks = 100;
modes =  [{1, 2, 3}, {4, 5, 6}, {7, 8, 9}, {10, 11, 12}, {13, 14, 15}, {16, 17, 18}, {19, 20, 21}, {22, 23, 24}, {25, 26, 27}, {28, 29, 30}, {31, 32, 33}, {34, 35, 36}, {37, 38, 39}, {40, 41, 42}, {43, 44, 45}, {46, 47, 48}, {49, 50, 51}, {52, 53, 54}, {55, 56, 57}, {58, 59, 60}, {61, 62, 63}, {64, 65, 66}, {67, 68, 69}, {70, 71, 72}, {73, 74, 75}, {76, 77, 78}, {79, 80, 81}, {82, 83, 84}, {85, 86, 87}, {88, 89, 90}, {91, 92, 93}, {94, 95, 96}, {97, 98, 99}, {100, 101, 102}, {103, 104, 105}, {106, 107, 108}, {109, 110, 111}, {112, 113, 114}, {115, 116, 117}, {118, 119, 120}, {121, 122, 123}, {124, 125, 126}, {127, 128, 129}, {130, 131, 132}, {133, 134, 135}, {136, 137, 138}, {139, 140, 141}, {142, 143, 144}, {145, 146, 147}, {148, 149, 150}, {151, 152, 153}, {154, 155, 156}, {157, 158, 159}, {160, 161, 162}, {163, 164, 165}, {166, 167, 168}, {169, 170, 171}, {172, 173, 174}, {175, 176, 177}, {178, 179, 180}, {181, 182, 183}, {184, 185, 186}, {187, 188, 189}, {190, 191, 192}, {193, 194, 195}, {196, 197, 198}, {199, 200, 201}, {202, 203, 204}, {205, 206, 207}, {208, 209, 210}, {211, 212, 213}, {214, 215, 216}, {217, 218, 219}, {220, 221, 222}, {223, 224, 225}, {226, 227, 228}, {229, 230, 231}, {232, 233, 234}, {235, 236, 237}, {238, 239, 240}, {241, 242, 243}, {244, 245, 246}, {247, 248, 249}, {250, 251, 252}, {253, 254, 255}, {256, 257, 258}, {259, 260, 261}, {262, 263, 264}, {265, 266, 267}, {268, 269, 270}, {271, 272, 273}, {274, 275, 276}, {277, 278, 279}, {280, 281, 282}, {283, 284, 285}, {286, 287, 288}, {289, 290, 291}, {292, 293, 294}, {295, 296, 297}, {298, 299, 300}];
succ =  [{44, 41, 37, 31, 27, 21, 16, 11}, {44, 41, 40, 38, 33, 17, 14}, {47, 41, 37, 34, 26, 25, 20, 13}, {47, 46, 45, 44, 43, 42, 41, 38, 36, 34, 31, 30, 28, 26, 25}, {46, 42, 41, 38, 36, 28, 26, 25, 17}, {47, 40, 38, 35, 31, 29, 21, 20}, {68, 47, 43, 40, 38, 31, 26, 16}, {58, 50, 49, 47, 46, 44, 43, 42, 40, 38, 37, 36, 35, 31}, {42, 41, 36, 35, 30, 25, 20}, {66, 58, 50, 49, 47, 46, 45, 44, 43, 37, 31, 26}, {66, 53, 51, 50, 49, 47, 46, 45, 42, 38, 30, 26}, {64, 57, 53, 50, 49, 48, 47, 46, 45, 43, 38, 36, 35, 33}, {51, 46, 42, 40, 39, 36, 35, 31, 28}, {51, 46, 36, 20}, {66, 60, 58, 53, 51, 50, 49, 45, 42, 41, 39, 38, 37, 32}, {53, 52, 51, 46, 20}, {66, 58, 56, 50, 49, 47, 45, 43, 37, 35, 31}, {66, 50, 41, 39, 35, 31, 28}, {69, 43, 42, 37, 32, 28}, {69, 66, 55, 50, 45, 39, 32, 28}, {64, 61, 60, 57, 56, 55, 51, 48, 46, 43, 36}, {66, 58, 51, 48, 47, 45, 42, 37}, {72, 57, 55, 52, 49, 48, 42, 35}, {69, 68, 66, 62, 59, 54, 50, 28}, {100, 79, 72, 71, 68, 66, 65, 64, 63, 60, 59, 57, 56, 52, 51, 50}, {72, 63, 61, 56, 55, 39, 35}, {79, 71, 67, 66, 65, 58, 54, 52, 48, 47, 42}, {72, 67, 64, 61, 60, 58, 57, 56, 49, 48}, {100, 99, 91, 79, 78, 74, 72, 71, 66, 65, 63, 62, 61, 58, 55, 53}, {100, 97, 72, 71, 69, 68, 67, 65, 63, 61, 59, 58, 48}, {100, 95, 71, 64, 63, 62, 61, 59, 55, 53, 52}, {100, 99, 98, 94, 78, 75, 72, 70, 67, 65, 64, 63, 62, 59, 57, 54}, {100, 74, 71, 65, 63, 59, 55, 52, 51}, {100, 97, 93, 73, 71, 65, 64, 63, 60, 55, 52}, {99, 93, 79, 77, 75, 71, 70, 69, 67, 65, 62, 60, 59, 54}, {100, 97, 94, 93, 79, 73, 68, 66, 65, 63, 52}, {100, 96, 79, 78, 72, 71, 68, 63, 57, 55, 54}, {100, 99, 97, 96, 93, 82, 78, 77, 74, 71, 67, 65, 63, 61, 56}, {100, 96, 89, 79, 73, 71, 65, 57, 48}, {100, 96, 89, 79, 65, 61, 57, 48}, {99, 98, 96, 93, 91, 88, 83, 79, 78, 77, 74, 73, 72, 71, 70, 67, 65, 63}, {99, 95, 94, 93, 77, 70, 68, 64, 63, 61, 56}, {97, 95, 94, 93, 79, 74, 67, 63, 52}, {99, 98, 97, 93, 86, 82, 79, 77, 76, 74, 65, 61, 56}, {98, 96, 94, 91, 88, 86, 79, 76, 73, 72, 65, 62}, {98, 93, 88, 86, 79, 78, 77, 72, 71, 65, 62}, {100, 99, 98, 96, 95, 94, 92, 89, 88, 87, 86, 76, 73, 70, 62}, {99, 98, 95, 94, 93, 92, 91, 90, 88, 87, 86, 85, 84, 78, 77, 75, 74, 70}, {100, 98, 96, 93, 91, 90, 89, 86, 82, 79, 76, 71, 65}, {94, 93, 92, 91, 88, 77, 75, 74, 70, 67, 61}, {98, 97, 96, 95, 93, 86, 80, 54}, {99, 98, 96, 91, 90, 89, 88, 87, 78, 76, 75, 70}, {93, 92, 90, 89, 88, 86, 85, 84, 81, 77, 75, 70}, {91, 89, 88, 87, 83, 82, 81, 76, 73}, {89, 88, 85, 82, 77, 75, 67}, {92, 91, 89, 88, 87, 84, 75, 73}, {97, 93, 91, 88, 83, 82, 81, 77}, {87, 86, 83, 73, 70}, {96, 91, 87, 85, 83, 82, 80}, {94, 91, 89, 88, 83, 82, 80}, {90, 87, 84, 81, 80, 73}, {97, 90, 84, 83, 82, 81}, {92, 90, 86, 81, 76}, {87, 86, 85, 81, 74}, {95, 92, 87, 84, 80}, {96, 90, 86, 83, 81}, {86, 81, 80}, {82, 74}, {86, 74}, {82, 80}, {94, 85}, {89, 81}, {85}, {80}, {83}, {84}, {80}, {81}, {81}, {}, {}, {}, {}, {}, {}, {}, {}, {}, {}, {}, {}, {}, {}, {}, {}, {}, {}, {}, {}, {}];
n_opt = 300;
dur = [3, 5, 9, 5, 6, 10, 2, 6, 7, 2, 3, 9, 3, 8, 10, 4, 7, 10, 1, 3, 6, 1, 2, 3, 1, 6, 8, 4, 7, 8, 2, 3, 6, 1, 6, 9, 6, 7, 10, 1, 4, 7, 3, 9, 10, 2, 9, 10, 4, 5, 7, 1, 3, 7, 3, 4, 10, 2, 5, 10, 2, 5, 6, 2, 3, 4, 1, 2, 10, 1, 6, 9, 7, 9, 10, 1, 2, 9, 2, 7, 10, 1, 6, 9, 3, 6, 10, 4, 5, 9, 6, 7, 10, 3, 8, 9, 2, 7, 9, 1, 8, 9, 1, 3, 5, 4, 7, 9, 1, 5, 6, 1, 2, 6, 1, 9, 10, 1, 2, 7, 3, 7, 8, 1, 8, 9, 4, 7, 10, 3, 4, 9, 2, 3, 6, 7, 9, 10, 3, 4, 10, 4, 5, 7, 1, 2, 5, 4, 8, 9, 3, 4, 8, 4, 5, 7, 1, 3, 7, 7, 9, 10, 1, 6, 9, 4, 5, 10, 5, 6, 8, 1, 4, 9, 3, 5, 6, 5, 7, 8, 4, 5, 7, 5, 6, 9, 3, 4, 5, 3, 7, 10, 1, 5, 7, 7, 8, 9, 1, 2, 8, 3, 6, 10, 4, 8, 10, 2, 5, 6, 7, 9, 10, 6, 7, 9, 3, 5, 7, 3, 4, 8, 1, 2, 4, 1, 9, 10, 3, 4, 10, 3, 4, 5, 5, 8, 10, 2, 4, 8, 1, 2, 6, 5, 6, 7, 1, 8, 10, 3, 9, 10, 1, 4, 10, 1, 4, 5, 5, 7, 8, 4, 5, 8, 4, 5, 7, 4, 5, 9, 1, 7, 10, 3, 4, 5, 3, 5, 6, 6, 7, 10, 2, 7, 8, 4, 5, 10, 5, 6, 10, 3, 4, 5, 1, 6, 10, 2, 9, 10];
rreq = [|4, 2, 1, 5, 5, 1, 3, 3, 2, 5, 5, 5, 1, 1, 1, 7, 6, 4, 9, 9, 8, 5, 3, 1, 5, 5, 5, 2, 2, 2, 7, 5, 3, 7, 7, 7, 8, 8, 5, 2, 2, 2, 8, 6, 5, 1, 1, 1, 7, 5, 1, 3, 3, 3, 8, 7, 7, 7, 7, 7, 8, 5, 4, 8, 7, 7, 8, 8, 8, 10, 7, 5, 6, 3, 2, 7, 7, 6, 6, 2, 2, 7, 7, 7, 9, 7, 7, 7, 7, 7, 9, 8, 6, 7, 5, 5, 5, 4, 3, 5, 5, 5, 7, 7, 7, 1, 1, 1, 6, 5, 2, 6, 6, 5, 8, 8, 8, 3, 3, 2, 9, 6, 3, 9, 4, 2, 6, 5, 3, 10, 9, 7, 4, 2, 2, 6, 6, 3, 5, 3, 2, 2, 1, 1, 6, 6, 6, 7, 7, 5, 10, 9, 9, 5, 3, 2, 6, 6, 6, 4, 2, 1, 8, 6, 5, 9, 8, 7, 3, 3, 3, 4, 2, 2, 10, 8, 6, 5, 4, 4, 6, 4, 4, 7, 5, 3, 2, 1, 1, 5, 5, 4, 10, 5, 3, 10, 9, 9, 7, 7, 7, 9, 8, 7, 7, 5, 3, 9, 7, 7, 5, 3, 2, 5, 4, 4, 9, 8, 8, 8, 7, 7, 2, 2, 2, 9, 9, 9, 8, 8, 5, 7, 5, 5, 7, 6, 5, 7, 4, 1, 9, 8, 8, 5, 4, 4, 2, 2, 2, 5, 4, 4, 8, 7, 6, 10, 8, 5, 7, 3, 3, 4, 4, 2, 8, 7, 7, 5, 5, 5, 2, 2, 2, 7, 6, 6, 6, 5, 3, 4, 2, 1, 7, 7, 6, 8, 7, 7, 8, 7, 7, 3, 3, 1, 10, 9, 8, 7, 6, 4
 |8, 8, 8, 5, 4, 2, 7, 6, 6, 8, 7, 5, 9, 7, 5, 8, 5, 5, 4, 4, 2, 5, 4, 4, 6, 6, 6, 8, 8, 8, 6, 6, 6, 7, 7, 7, 9, 9, 8, 4, 2, 2, 8, 4, 4, 7, 4, 3, 7, 7, 7, 6, 5, 5, 4, 4, 4, 4, 4, 4, 6, 3, 2, 9, 5, 4, 3, 3, 3, 7, 5, 4, 8, 5, 2, 6, 5, 5, 8, 8, 6, 10, 8, 8, 5, 4, 3, 7, 6, 3, 6, 5, 1, 8, 8, 8, 7, 5, 5, 8, 7, 6, 7, 6, 6, 7, 7, 5, 6, 6, 5, 5, 4, 4, 8, 4, 4, 1, 1, 1, 7, 6, 2, 8, 8, 5, 6, 3, 1, 5, 4, 3, 6, 2, 1, 9, 5, 3, 10, 8, 7, 5, 2, 1, 9, 9, 9, 9, 5, 2, 9, 6, 4, 7, 5, 4, 1, 1, 1, 6, 6, 6, 4, 3, 3, 8, 7, 6, 5, 5, 5, 7, 4, 4, 8, 7, 7, 5, 4, 4, 9, 9, 9, 2, 1, 1, 8, 8, 8, 10, 4, 2, 10, 10, 10, 10, 9, 9, 7, 6, 6, 6, 4, 4, 7, 7, 6, 6, 5, 5, 9, 8, 6, 10, 9, 9, 1, 1, 1, 5, 4, 3, 6, 5, 3, 8, 7, 5, 9, 7, 7, 5, 4, 4, 7, 6, 4, 7, 5, 2, 7, 7, 6, 9, 9, 7, 8, 8, 8, 3, 2, 2, 5, 3, 3, 5, 5, 5, 6, 5, 4, 5, 3, 3, 8, 6, 3, 4, 3, 2, 6, 5, 3, 6, 4, 3, 5, 4, 4, 4, 3, 3, 2, 1, 1, 6, 3, 2, 10, 7, 3, 6, 6, 5, 6, 5, 5, 9, 8, 4
 |3, 2, 2, 3, 3, 3, 8, 8, 8, 7, 6, 3, 4, 2, 1, 9, 7, 7, 3, 3, 3, 6, 6, 5, 10, 10, 10, 9, 8, 8, 8, 6, 6, 10, 9, 8, 7, 4, 3, 8, 5, 5, 7, 5, 2, 10, 10, 10, 9, 8, 8, 9, 8, 8, 8, 7, 7, 6, 4, 3, 5, 3, 3, 3, 1, 1, 9, 8, 7, 7, 7, 6, 6, 4, 4, 8, 6, 6, 10, 8, 7, 3, 3, 3, 5, 5, 5, 2, 2, 2, 6, 6, 5, 5, 3, 2, 6, 2, 1, 4, 3, 3, 9, 7, 6, 8, 6, 5, 7, 6, 6, 8, 7, 5, 6, 6, 6, 10, 7, 5, 9, 4, 2, 5, 4, 2, 8, 7, 7, 6, 4, 2, 5, 2, 2, 4, 4, 4, 9, 8, 8, 2, 1, 1, 8, 7, 7, 6, 5, 2, 2, 2, 2, 6, 6, 6, 3, 2, 2, 4, 4, 4, 9, 9, 9, 6, 4, 4, 9, 8, 7, 5, 5, 4, 8, 6, 3, 7, 5, 5, 9, 4, 4, 7, 6, 5, 3, 2, 2, 9, 7, 5, 10, 10, 10, 9, 7, 7, 4, 3, 2, 9, 5, 3, 9, 8, 8, 4, 2, 2, 8, 5, 4, 6, 5, 5, 7, 6, 5, 5, 2, 2, 10, 8, 6, 6, 4, 3, 7, 5, 3, 3, 3, 2, 4, 2, 2, 6, 6, 6, 4, 3, 1, 8, 6, 2, 6, 6, 6, 9, 8, 8, 5, 4, 3, 9, 8, 7, 8, 8, 8, 3, 3, 3, 8, 8, 8, 7, 4, 4, 2, 1, 1, 10, 9, 7, 4, 3, 2, 1, 1, 1, 9, 8, 5, 9, 7, 5, 7, 6, 6, 9, 7, 6, 4, 3, 3, 9, 7, 6
 |8, 7, 5, 9, 9, 8, 10, 8, 6, 9, 6, 6, 2, 2, 2, 7, 5, 5, 10, 8, 8, 8, 3, 2, 9, 8, 5, 6, 5, 4, 7, 5, 4, 7, 5, 4, 8, 4, 4, 6, 4, 3, 9, 7, 7, 6, 5, 4, 8, 7, 5, 4, 4, 3, 5, 3, 2, 9, 6, 4, 7, 7, 7, 8, 7, 1, 8, 7, 7, 7, 5, 4, 8, 5, 2, 7, 6, 4, 7, 4, 4, 9, 7, 5, 7, 6, 4, 9, 7, 6, 7, 6, 3, 6, 5, 4, 7, 6, 3, 10, 7, 3, 4, 4, 4, 9, 7, 6, 8, 7, 7, 5, 5, 5, 8, 8, 7, 4, 2, 2, 7, 3, 1, 7, 6, 6, 2, 2, 2, 7, 7, 4, 2, 2, 2, 8, 7, 6, 7, 5, 3, 3, 3, 3, 7, 7, 6, 10, 6, 6, 5, 3, 3, 6, 3, 3, 5, 3, 2, 9, 7, 3, 7, 4, 4, 7, 4, 3, 10, 4, 2, 5, 4, 2, 3, 2, 1, 10, 10, 9, 3, 2, 1, 8, 7, 6, 5, 5, 4, 6, 4, 2, 9, 6, 4, 8, 6, 4, 4, 4, 3, 8, 6, 4, 5, 3, 3, 4, 3, 2, 6, 4, 4, 7, 7, 5, 7, 3, 1, 3, 3, 2, 8, 6, 5, 3, 3, 3, 5, 4, 4, 9, 9, 9, 9, 8, 7, 6, 5, 4, 6, 6, 3, 3, 3, 2, 6, 5, 4, 10, 8, 7, 7, 7, 6, 6, 4, 4, 1, 1, 1, 7, 5, 5, 7, 4, 3, 6, 6, 3, 10, 10, 10, 5, 4, 1, 3, 2, 2, 10, 6, 6, 4, 4, 4, 9, 4, 4, 10, 10, 10, 7, 7, 7, 4, 2, 2, 6, 6, 6|];